unsat
(define-fun skel ((i18 Bool) (i17 Bool) (i16 Bool)) Bool (or (and i18 i17) (not (or i17 i16))))
0.04user 0.00system 0:00.04elapsed 100%CPU (0avgtext+0avgdata 26112maxresident)k
0inputs+8outputs (0major+1280minor)pagefaults 0swaps
